************************************************************************
file with basedata            : J12022_.BAS
initial value random generator: 22936
************************************************************************
projects                      :  1
jobs (incl. supersource/sink ):  122
horizon                       :  640
RESOURCES
  - renewable                 :  4   R
  - nonrenewable              :  0   N
  - doubly constrained        :  0   D
************************************************************************
PROJECT INFORMATION:
pronr.  #jobs rel.date duedate tardcost  MPM-Time
    1    120      0       83       67       83
************************************************************************
PRECEDENCE RELATIONS:
jobnr.    #modes  #successors   successors
   1        1          3           2   3   4
   2        1          3           6  11  73
   3        1          3           8   9  41
   4        1          3           5  17  20
   5        1          3           7   8  16
   6        1          3          10  18  67
   7        1          1          19
   8        1          3          12  15  77
   9        1          2          51  79
  10        1          3          13  42  91
  11        1          1          14
  12        1          3          21  23  82
  13        1          2          24  57
  14        1          3          32  52  78
  15        1          3          25  27  50
  16        1          3          31  53 115
  17        1          2          54  56
  18        1          2          28  95
  19        1          3          23  33  93
  20        1          3          23  25  70
  21        1          3          22  34 117
  22        1          2          55  95
  23        1          1          62
  24        1          1          89
  25        1          3          26  29  44
  26        1          2          35  66
  27        1          3          39  43  99
  28        1          2          39  49
  29        1          3          30  38  46
  30        1          2         102 114
  31        1          3          32  37  59
  32        1          3          47  62 110
  33        1          3          36  40  88
  34        1          2          50 100
  35        1          3          47  72 103
  36        1          2          37  83
  37        1          1         111
  38        1          1         102
  39        1          3          45  48  54
  40        1          3          65  73 107
  41        1          1          75
  42        1          3          68  69  71
  43        1          2          51  58
  44        1          1          96
  45        1          3          52  83  85
  46        1          1         109
  47        1          3          64  88 111
  48        1          2          61 105
  49        1          1          92
  50        1          3          63 108 121
  51        1          3          62  63  97
  52        1          2          89  97
  53        1          1          87
  54        1          1         119
  55        1          2          60  96
  56        1          2          79  81
  57        1          1          80
  58        1          1         110
  59        1          2          81  88
  60        1          1          92
  61        1          2          65  90
  62        1          1         101
  63        1          1          69
  64        1          1         118
  65        1          2          66  84
  66        1          1         106
  67        1          2          77  82
  68        1          1         115
  69        1          2          90 116
  70        1          2          74  93
  71        1          1          85
  72        1          1          82
  73        1          1         116
  74        1          3          76  85  90
  75        1          2          76  79
  76        1          2          86  99
  77        1          1          86
  78        1          2          84 102
  79        1          3          98 101 112
  80        1          2          94 106
  81        1          1          94
  82        1          2         104 107
  83        1          1          84
  84        1          2         104 106
  85        1          2          86 103
  86        1          1         115
  87        1          2          89 116
  88        1          2          97 117
  89        1          2          92 104
  90        1          1         114
  91        1          2          93 103
  92        1          2          98 101
  93        1          1         100
  94        1          2          95  99
  95        1          2          96 113
  96        1          2         109 114
  97        1          1         108
  98        1          1         100
  99        1          1         107
 100        1          1         105
 101        1          1         105
 102        1          1         109
 103        1          1         113
 104        1          1         119
 105        1          1         111
 106        1          1         112
 107        1          2         108 117
 108        1          1         112
 109        1          1         110
 110        1          1         119
 111        1          1         113
 112        1          1         120
 113        1          1         121
 114        1          1         118
 115        1          1         118
 116        1          1         120
 117        1          1         121
 118        1          1         120
 119        1          1         122
 120        1          1         122
 121        1          1         122
 122        1          0        
************************************************************************
REQUESTS/DURATIONS:
jobnr. mode duration  R 1  R 2  R 3  R 4
------------------------------------------------------------------------
  1      1     0       0    0    0    0
  2      1     5       3    0    0    0
  3      1     2       0    0    3    0
  4      1     4       0    0    0    4
  5      1    10       0    0    0    8
  6      1     3       0    0    0   10
  7      1     6       0    0    0    5
  8      1     1       0    0    9    0
  9      1     9       0   10    0    0
 10      1     5       0    8    0    0
 11      1     7       0    0    0    8
 12      1     3       0    0    0    7
 13      1     6       0    7    0    0
 14      1     8       0    0    0    6
 15      1     7       0    7    0    0
 16      1     4       0    6    0    0
 17      1     1       0    3    0    0
 18      1     5       0    0    0    9
 19      1     8       6    0    0    0
 20      1    10       0    0    0    8
 21      1     2       0    6    0    0
 22      1     7       0    0    0    8
 23      1     6       0    1    0    0
 24      1     3       0    0    0    2
 25      1     3       0    9    0    0
 26      1     1       0    0    0    2
 27      1     7       0    8    0    0
 28      1     2       0    0    0    4
 29      1     8       0    0    8    0
 30      1     4       0    5    0    0
 31      1     9       0    0    7    0
 32      1     1       0    0    1    0
 33      1     6       0    5    0    0
 34      1     7       4    0    0    0
 35      1     4       0    4    0    0
 36      1     6       7    0    0    0
 37      1     8       0    0    1    0
 38      1     5       0    8    0    0
 39      1     4       0    0    3    0
 40      1     5       1    0    0    0
 41      1     3       0    0    3    0
 42      1     1       0    0    2    0
 43      1     3       8    0    0    0
 44      1     8       0    0    0    4
 45      1     5       0    0    0    3
 46      1     5       4    0    0    0
 47      1     9       0    1    0    0
 48      1     5       0    0    0    9
 49      1     2       0    0   10    0
 50      1     2       0    0    6    0
 51      1     5       0    1    0    0
 52      1     2       6    0    0    0
 53      1     2       9    0    0    0
 54      1     9       1    0    0    0
 55      1    10       4    0    0    0
 56      1     1       3    0    0    0
 57      1     7       0   10    0    0
 58      1     5       2    0    0    0
 59      1    10       3    0    0    0
 60      1     3       9    0    0    0
 61      1     5       0    0    1    0
 62      1     6       6    0    0    0
 63      1     1       0    3    0    0
 64      1     7       0    0    0   10
 65      1     4       0    0    2    0
 66      1     9       7    0    0    0
 67      1     9       3    0    0    0
 68      1     2       1    0    0    0
 69      1     3       2    0    0    0
 70      1     1       0    0    0    2
 71      1     5       0    0    0    7
 72      1     6       0    0    1    0
 73      1     6       0    0    0    5
 74      1     7       0    9    0    0
 75      1     7       0    6    0    0
 76      1    10       0    0    9    0
 77      1     2       0    7    0    0
 78      1     3       7    0    0    0
 79      1     5       0    9    0    0
 80      1     8       6    0    0    0
 81      1     8       0    0    0    6
 82      1     4       0    0    0    6
 83      1    10       0    0    5    0
 84      1     3       0    7    0    0
 85      1     2       0    0    0    2
 86      1     5       5    0    0    0
 87      1     9       0    5    0    0
 88      1    10       0    0    7    0
 89      1    10       0    0    0    3
 90      1     9       0    0   10    0
 91      1    10       0    0    0   10
 92      1     1       0    0    0    9
 93      1     7       3    0    0    0
 94      1     7       0    0    9    0
 95      1     6       9    0    0    0
 96      1     1       0    0    7    0
 97      1     5      10    0    0    0
 98      1     3       1    0    0    0
 99      1     9       3    0    0    0
100      1     5       0   10    0    0
101      1     8       0    0    6    0
102      1     1       0    0    0    6
103      1     2       0    9    0    0
104      1    10       0    0    9    0
105      1     5       1    0    0    0
106      1    10       0    0    2    0
107      1     1       0    0    7    0
108      1    10       8    0    0    0
109      1     2       0    0    0   10
110      1     3       5    0    0    0
111      1     5       5    0    0    0
112      1     5       0    0    2    0
113      1    10       0    9    0    0
114      1     5       5    0    0    0
115      1     6       0    2    0    0
116      1     1       0    0    0    4
117      1    10       0    7    0    0
118      1     3       9    0    0    0
119      1     6       5    0    0    0
120      1     4       0    0   10    0
121      1     4       6    0    0    0
122      1     0       0    0    0    0
************************************************************************
RESOURCEAVAILABILITIES:
  R 1  R 2  R 3  R 4
   14   16   15   15
************************************************************************
